(set-logic BV) (define-fun origCir ((n199 Bool) (n165 Bool) (n192 Bool) (n152 Bool) (n117 Bool)) Bool (and n199 (and (and n192 n165) (and n152 n117)))) (synth-fun skel ((n199 Bool) (n165 Bool) (n192 Bool) (n152 Bool) (n117 Bool)) Bool) (declare-var n199 Bool) (declare-var n165 Bool) (declare-var n192 Bool) (declare-var n152 Bool) (declare-var n117 Bool) (constraint (= (origCir n199 n165 n192 n152 n117) (skel n199 n165 n192 n152 n117))) (check-synth)
